param n := 25;
param s := 19;
param t := 4;
set A :=
1 7 
1 9 
1 10 
1 14 
1 25 
2 1 
2 4 
3 7 
3 8 
3 13 
3 17 
5 13 
6 3 
6 18 
6 24 
7 1 
7 11 
7 13 
8 6 
8 24 
9 1 
9 6 
9 16 
9 20 
9 21 
10 8 
10 11 
10 16 
11 4 
11 13 
11 18 
11 21 
11 25 
12 9 
12 16 
12 18 
12 20 
12 21 
12 23 
13 3 
13 4 
13 21 
13 22 
14 10 
14 15 
15 21 
16 1 
17 6 
17 9 
17 13 
17 14 
17 18 
18 10 
18 14 
19 5 
19 25 
20 7 
20 14 
21 4 
21 13 
21 16 
22 2 
22 3 
22 11 
22 12 
22 16 
23 1 
23 11 
23 17 
23 22 
24 4 
24 10 
25 4 
25 16 
;
param: capacity:=
1 7 5.1 
1 9 4.8 
1 10 9.3 
1 14 9.3 
1 25 9.9 
2 1 8.4 
2 4 8.0 
3 7 7.2 
3 8 4.5 
3 13 3.6 
3 17 7.7 
5 13 9.5 
6 3 4.6 
6 18 8.6 
6 24 8.4 
7 1 3.4 
7 11 4.4 
7 13 7.6 
8 6 7.8 
8 24 4.7 
9 1 4.7 
9 6 9.0 
9 16 3.1 
9 20 4.7 
9 21 3.3 
10 8 9.3 
10 11 5.3 
10 16 6.4 
11 4 5.4 
11 13 7.9 
11 18 9.8 
11 21 8.1 
11 25 4.5 
12 9 3.1 
12 16 3.4 
12 18 8.4 
12 20 9.4 
12 21 3.3 
12 23 6.4 
13 3 8.9 
13 4 8.3 
13 21 3.4 
13 22 6.1 
14 10 7.8 
14 15 9.7 
15 21 6.2 
16 1 4.9 
17 6 4.0 
17 9 3.5 
17 13 9.7 
17 14 4.2 
17 18 8.7 
18 10 4.8 
18 14 8.3 
19 5 9.8 
19 25 8.3 
20 7 7.0 
20 14 8.6 
21 4 4.0 
21 13 7.1 
21 16 9.0 
22 2 6.1 
22 3 6.1 
22 11 7.6 
22 12 8.8 
22 16 4.6 
23 1 4.5 
23 11 9.9 
23 17 3.6 
23 22 9.5 
24 4 9.8 
24 10 5.7 
25 4 7.9 
25 16 7.8 
;
param: cost:=
1 7 9.9 
1 9 4.9 
1 10 1.5 
1 14 8.0 
1 25 9.3 
2 1 1.4 
2 4 3.0 
3 7 3.8 
3 8 8.5 
3 13 3.4 
3 17 1.2 
5 13 6.2 
6 3 2.1 
6 18 6.4 
6 24 5.9 
7 1 2.3 
7 11 7.6 
7 13 9.8 
8 6 6.2 
8 24 7.7 
9 1 3.5 
9 6 3.7 
9 16 8.0 
9 20 2.8 
9 21 7.5 
10 8 9.9 
10 11 2.4 
10 16 2.3 
11 4 6.8 
11 13 9.4 
11 18 1.2 
11 21 5.7 
11 25 6.0 
12 9 8.8 
12 16 3.7 
12 18 4.5 
12 20 7.6 
12 21 4.9 
12 23 4.4 
13 3 3.9 
13 4 3.8 
13 21 9.7 
13 22 1.1 
14 10 9.7 
14 15 2.7 
15 21 3.5 
16 1 8.9 
17 6 2.5 
17 9 8.0 
17 13 4.0 
17 14 6.8 
17 18 6.4 
18 10 4.5 
18 14 4.4 
19 5 2.7 
19 25 8.1 
20 7 5.8 
20 14 1.1 
21 4 3.8 
21 13 2.8 
21 16 3.8 
22 2 4.4 
22 3 9.4 
22 11 3.6 
22 12 1.5 
22 16 9.0 
23 1 5.1 
23 11 4.2 
23 17 2.1 
23 22 9.1 
24 4 9.4 
24 10 6.1 
25 4 4.0 
25 16 8.9 
;